c File: flat175_3_0.col
c
c SOURCE: Joseph Culberson (joe@cs.ualberta.ca)
c DESCRIPTION: Quasi-random coloring problem
c              generated with flatness = 0
c                             probability = 0.041
c                             known coloring = 3
c                             random seed = 1037
c              Creation Date:  Wed Feb 24 10:55:06 1999
c Maximum degree = 8 Minimum degree = 0
c COLOR VERIFICATION: Using the permuted order
c under simple greedy yields the specified
c coloring number
c Color = 3 specified partitions = 3
c p edge 175 417
c cnf created by edge2cnf
p cnf 525 1951
-1 -2 0
-1 -3 0
-2 -3 0
1 2 3 0
-4 -5 0
-4 -6 0
-5 -6 0
4 5 6 0
-7 -8 0
-7 -9 0
-8 -9 0
7 8 9 0
-10 -11 0
-10 -12 0
-11 -12 0
10 11 12 0
-13 -14 0
-13 -15 0
-14 -15 0
13 14 15 0
-16 -17 0
-16 -18 0
-17 -18 0
16 17 18 0
-19 -20 0
-19 -21 0
-20 -21 0
19 20 21 0
-22 -23 0
-22 -24 0
-23 -24 0
22 23 24 0
-25 -26 0
-25 -27 0
-26 -27 0
25 26 27 0
-28 -29 0
-28 -30 0
-29 -30 0
28 29 30 0
-31 -32 0
-31 -33 0
-32 -33 0
31 32 33 0
-34 -35 0
-34 -36 0
-35 -36 0
34 35 36 0
-37 -38 0
-37 -39 0
-38 -39 0
37 38 39 0
-40 -41 0
-40 -42 0
-41 -42 0
40 41 42 0
-43 -44 0
-43 -45 0
-44 -45 0
43 44 45 0
-46 -47 0
-46 -48 0
-47 -48 0
46 47 48 0
-49 -50 0
-49 -51 0
-50 -51 0
49 50 51 0
-52 -53 0
-52 -54 0
-53 -54 0
52 53 54 0
-55 -56 0
-55 -57 0
-56 -57 0
55 56 57 0
-58 -59 0
-58 -60 0
-59 -60 0
58 59 60 0
-61 -62 0
-61 -63 0
-62 -63 0
61 62 63 0
-64 -65 0
-64 -66 0
-65 -66 0
64 65 66 0
-67 -68 0
-67 -69 0
-68 -69 0
67 68 69 0
-70 -71 0
-70 -72 0
-71 -72 0
70 71 72 0
-73 -74 0
-73 -75 0
-74 -75 0
73 74 75 0
-76 -77 0
-76 -78 0
-77 -78 0
76 77 78 0
-79 -80 0
-79 -81 0
-80 -81 0
79 80 81 0
-82 -83 0
-82 -84 0
-83 -84 0
82 83 84 0
-85 -86 0
-85 -87 0
-86 -87 0
85 86 87 0
-88 -89 0
-88 -90 0
-89 -90 0
88 89 90 0
-91 -92 0
-91 -93 0
-92 -93 0
91 92 93 0
-94 -95 0
-94 -96 0
-95 -96 0
94 95 96 0
-97 -98 0
-97 -99 0
-98 -99 0
97 98 99 0
-100 -101 0
-100 -102 0
-101 -102 0
100 101 102 0
-103 -104 0
-103 -105 0
-104 -105 0
103 104 105 0
-106 -107 0
-106 -108 0
-107 -108 0
106 107 108 0
-109 -110 0
-109 -111 0
-110 -111 0
109 110 111 0
-112 -113 0
-112 -114 0
-113 -114 0
112 113 114 0
-115 -116 0
-115 -117 0
-116 -117 0
115 116 117 0
-118 -119 0
-118 -120 0
-119 -120 0
118 119 120 0
-121 -122 0
-121 -123 0
-122 -123 0
121 122 123 0
-124 -125 0
-124 -126 0
-125 -126 0
124 125 126 0
-127 -128 0
-127 -129 0
-128 -129 0
127 128 129 0
-130 -131 0
-130 -132 0
-131 -132 0
130 131 132 0
-133 -134 0
-133 -135 0
-134 -135 0
133 134 135 0
-136 -137 0
-136 -138 0
-137 -138 0
136 137 138 0
-139 -140 0
-139 -141 0
-140 -141 0
139 140 141 0
-142 -143 0
-142 -144 0
-143 -144 0
142 143 144 0
-145 -146 0
-145 -147 0
-146 -147 0
145 146 147 0
-148 -149 0
-148 -150 0
-149 -150 0
148 149 150 0
-151 -152 0
-151 -153 0
-152 -153 0
151 152 153 0
-154 -155 0
-154 -156 0
-155 -156 0
154 155 156 0
-157 -158 0
-157 -159 0
-158 -159 0
157 158 159 0
-160 -161 0
-160 -162 0
-161 -162 0
160 161 162 0
-163 -164 0
-163 -165 0
-164 -165 0
163 164 165 0
-166 -167 0
-166 -168 0
-167 -168 0
166 167 168 0
-169 -170 0
-169 -171 0
-170 -171 0
169 170 171 0
-172 -173 0
-172 -174 0
-173 -174 0
172 173 174 0
-175 -176 0
-175 -177 0
-176 -177 0
175 176 177 0
-178 -179 0
-178 -180 0
-179 -180 0
178 179 180 0
-181 -182 0
-181 -183 0
-182 -183 0
181 182 183 0
-184 -185 0
-184 -186 0
-185 -186 0
184 185 186 0
-187 -188 0
-187 -189 0
-188 -189 0
187 188 189 0
-190 -191 0
-190 -192 0
-191 -192 0
190 191 192 0
-193 -194 0
-193 -195 0
-194 -195 0
193 194 195 0
-196 -197 0
-196 -198 0
-197 -198 0
196 197 198 0
-199 -200 0
-199 -201 0
-200 -201 0
199 200 201 0
-202 -203 0
-202 -204 0
-203 -204 0
202 203 204 0
-205 -206 0
-205 -207 0
-206 -207 0
205 206 207 0
-208 -209 0
-208 -210 0
-209 -210 0
208 209 210 0
-211 -212 0
-211 -213 0
-212 -213 0
211 212 213 0
-214 -215 0
-214 -216 0
-215 -216 0
214 215 216 0
-217 -218 0
-217 -219 0
-218 -219 0
217 218 219 0
-220 -221 0
-220 -222 0
-221 -222 0
220 221 222 0
-223 -224 0
-223 -225 0
-224 -225 0
223 224 225 0
-226 -227 0
-226 -228 0
-227 -228 0
226 227 228 0
-229 -230 0
-229 -231 0
-230 -231 0
229 230 231 0
-232 -233 0
-232 -234 0
-233 -234 0
232 233 234 0
-235 -236 0
-235 -237 0
-236 -237 0
235 236 237 0
-238 -239 0
-238 -240 0
-239 -240 0
238 239 240 0
-241 -242 0
-241 -243 0
-242 -243 0
241 242 243 0
-244 -245 0
-244 -246 0
-245 -246 0
244 245 246 0
-247 -248 0
-247 -249 0
-248 -249 0
247 248 249 0
-250 -251 0
-250 -252 0
-251 -252 0
250 251 252 0
-253 -254 0
-253 -255 0
-254 -255 0
253 254 255 0
-256 -257 0
-256 -258 0
-257 -258 0
256 257 258 0
-259 -260 0
-259 -261 0
-260 -261 0
259 260 261 0
-262 -263 0
-262 -264 0
-263 -264 0
262 263 264 0
-265 -266 0
-265 -267 0
-266 -267 0
265 266 267 0
-268 -269 0
-268 -270 0
-269 -270 0
268 269 270 0
-271 -272 0
-271 -273 0
-272 -273 0
271 272 273 0
-274 -275 0
-274 -276 0
-275 -276 0
274 275 276 0
-277 -278 0
-277 -279 0
-278 -279 0
277 278 279 0
-280 -281 0
-280 -282 0
-281 -282 0
280 281 282 0
-283 -284 0
-283 -285 0
-284 -285 0
283 284 285 0
-286 -287 0
-286 -288 0
-287 -288 0
286 287 288 0
-289 -290 0
-289 -291 0
-290 -291 0
289 290 291 0
-292 -293 0
-292 -294 0
-293 -294 0
292 293 294 0
-295 -296 0
-295 -297 0
-296 -297 0
295 296 297 0
-298 -299 0
-298 -300 0
-299 -300 0
298 299 300 0
-301 -302 0
-301 -303 0
-302 -303 0
301 302 303 0
-304 -305 0
-304 -306 0
-305 -306 0
304 305 306 0
-307 -308 0
-307 -309 0
-308 -309 0
307 308 309 0
-310 -311 0
-310 -312 0
-311 -312 0
310 311 312 0
-313 -314 0
-313 -315 0
-314 -315 0
313 314 315 0
-316 -317 0
-316 -318 0
-317 -318 0
316 317 318 0
-319 -320 0
-319 -321 0
-320 -321 0
319 320 321 0
-322 -323 0
-322 -324 0
-323 -324 0
322 323 324 0
-325 -326 0
-325 -327 0
-326 -327 0
325 326 327 0
-328 -329 0
-328 -330 0
-329 -330 0
328 329 330 0
-331 -332 0
-331 -333 0
-332 -333 0
331 332 333 0
-334 -335 0
-334 -336 0
-335 -336 0
334 335 336 0
-337 -338 0
-337 -339 0
-338 -339 0
337 338 339 0
-340 -341 0
-340 -342 0
-341 -342 0
340 341 342 0
-343 -344 0
-343 -345 0
-344 -345 0
343 344 345 0
-346 -347 0
-346 -348 0
-347 -348 0
346 347 348 0
-349 -350 0
-349 -351 0
-350 -351 0
349 350 351 0
-352 -353 0
-352 -354 0
-353 -354 0
352 353 354 0
-355 -356 0
-355 -357 0
-356 -357 0
355 356 357 0
-358 -359 0
-358 -360 0
-359 -360 0
358 359 360 0
-361 -362 0
-361 -363 0
-362 -363 0
361 362 363 0
-364 -365 0
-364 -366 0
-365 -366 0
364 365 366 0
-367 -368 0
-367 -369 0
-368 -369 0
367 368 369 0
-370 -371 0
-370 -372 0
-371 -372 0
370 371 372 0
-373 -374 0
-373 -375 0
-374 -375 0
373 374 375 0
-376 -377 0
-376 -378 0
-377 -378 0
376 377 378 0
-379 -380 0
-379 -381 0
-380 -381 0
379 380 381 0
-382 -383 0
-382 -384 0
-383 -384 0
382 383 384 0
-385 -386 0
-385 -387 0
-386 -387 0
385 386 387 0
-388 -389 0
-388 -390 0
-389 -390 0
388 389 390 0
-391 -392 0
-391 -393 0
-392 -393 0
391 392 393 0
-394 -395 0
-394 -396 0
-395 -396 0
394 395 396 0
-397 -398 0
-397 -399 0
-398 -399 0
397 398 399 0
-400 -401 0
-400 -402 0
-401 -402 0
400 401 402 0
-403 -404 0
-403 -405 0
-404 -405 0
403 404 405 0
-406 -407 0
-406 -408 0
-407 -408 0
406 407 408 0
-409 -410 0
-409 -411 0
-410 -411 0
409 410 411 0
-412 -413 0
-412 -414 0
-413 -414 0
412 413 414 0
-415 -416 0
-415 -417 0
-416 -417 0
415 416 417 0
-418 -419 0
-418 -420 0
-419 -420 0
418 419 420 0
-421 -422 0
-421 -423 0
-422 -423 0
421 422 423 0
-424 -425 0
-424 -426 0
-425 -426 0
424 425 426 0
-427 -428 0
-427 -429 0
-428 -429 0
427 428 429 0
-430 -431 0
-430 -432 0
-431 -432 0
430 431 432 0
-433 -434 0
-433 -435 0
-434 -435 0
433 434 435 0
-436 -437 0
-436 -438 0
-437 -438 0
436 437 438 0
-439 -440 0
-439 -441 0
-440 -441 0
439 440 441 0
-442 -443 0
-442 -444 0
-443 -444 0
442 443 444 0
-445 -446 0
-445 -447 0
-446 -447 0
445 446 447 0
-448 -449 0
-448 -450 0
-449 -450 0
448 449 450 0
-451 -452 0
-451 -453 0
-452 -453 0
451 452 453 0
-454 -455 0
-454 -456 0
-455 -456 0
454 455 456 0
-457 -458 0
-457 -459 0
-458 -459 0
457 458 459 0
-460 -461 0
-460 -462 0
-461 -462 0
460 461 462 0
-463 -464 0
-463 -465 0
-464 -465 0
463 464 465 0
-466 -467 0
-466 -468 0
-467 -468 0
466 467 468 0
-469 -470 0
-469 -471 0
-470 -471 0
469 470 471 0
-472 -473 0
-472 -474 0
-473 -474 0
472 473 474 0
-475 -476 0
-475 -477 0
-476 -477 0
475 476 477 0
-478 -479 0
-478 -480 0
-479 -480 0
478 479 480 0
-481 -482 0
-481 -483 0
-482 -483 0
481 482 483 0
-484 -485 0
-484 -486 0
-485 -486 0
484 485 486 0
-487 -488 0
-487 -489 0
-488 -489 0
487 488 489 0
-490 -491 0
-490 -492 0
-491 -492 0
490 491 492 0
-493 -494 0
-493 -495 0
-494 -495 0
493 494 495 0
-496 -497 0
-496 -498 0
-497 -498 0
496 497 498 0
-499 -500 0
-499 -501 0
-500 -501 0
499 500 501 0
-502 -503 0
-502 -504 0
-503 -504 0
502 503 504 0
-505 -506 0
-505 -507 0
-506 -507 0
505 506 507 0
-508 -509 0
-508 -510 0
-509 -510 0
508 509 510 0
-511 -512 0
-511 -513 0
-512 -513 0
511 512 513 0
-514 -515 0
-514 -516 0
-515 -516 0
514 515 516 0
-517 -518 0
-517 -519 0
-518 -519 0
517 518 519 0
-520 -521 0
-520 -522 0
-521 -522 0
520 521 522 0
-523 -524 0
-523 -525 0
-524 -525 0
523 524 525 0
-91 -1 0
-92 -2 0
-93 -3 0
-109 -1 0
-110 -2 0
-111 -3 0
-118 -1 0
-119 -2 0
-120 -3 0
-130 -1 0
-131 -2 0
-132 -3 0
-142 -1 0
-143 -2 0
-144 -3 0
-241 -1 0
-242 -2 0
-243 -3 0
-460 -1 0
-461 -2 0
-462 -3 0
-493 -1 0
-494 -2 0
-495 -3 0
-7 -4 0
-8 -5 0
-9 -6 0
-55 -4 0
-56 -5 0
-57 -6 0
-310 -4 0
-311 -5 0
-312 -6 0
-340 -4 0
-341 -5 0
-342 -6 0
-508 -4 0
-509 -5 0
-510 -6 0
-118 -7 0
-119 -8 0
-120 -9 0
-289 -7 0
-290 -8 0
-291 -9 0
-463 -7 0
-464 -8 0
-465 -9 0
-145 -10 0
-146 -11 0
-147 -12 0
-181 -10 0
-182 -11 0
-183 -12 0
-193 -10 0
-194 -11 0
-195 -12 0
-202 -10 0
-203 -11 0
-204 -12 0
-262 -10 0
-263 -11 0
-264 -12 0
-439 -10 0
-440 -11 0
-441 -12 0
-49 -13 0
-50 -14 0
-51 -15 0
-76 -13 0
-77 -14 0
-78 -15 0
-214 -13 0
-215 -14 0
-216 -15 0
-256 -13 0
-257 -14 0
-258 -15 0
-304 -13 0
-305 -14 0
-306 -15 0
-469 -13 0
-470 -14 0
-471 -15 0
-493 -13 0
-494 -14 0
-495 -15 0
-520 -13 0
-521 -14 0
-522 -15 0
-43 -16 0
-44 -17 0
-45 -18 0
-163 -16 0
-164 -17 0
-165 -18 0
-217 -16 0
-218 -17 0
-219 -18 0
-328 -16 0
-329 -17 0
-330 -18 0
-118 -19 0
-119 -20 0
-120 -21 0
-181 -19 0
-182 -20 0
-183 -21 0
-361 -19 0
-362 -20 0
-363 -21 0
-472 -19 0
-473 -20 0
-474 -21 0
-49 -22 0
-50 -23 0
-51 -24 0
-211 -22 0
-212 -23 0
-213 -24 0
-70 -25 0
-71 -26 0
-72 -27 0
-100 -25 0
-101 -26 0
-102 -27 0
-229 -25 0
-230 -26 0
-231 -27 0
-244 -25 0
-245 -26 0
-246 -27 0
-253 -25 0
-254 -26 0
-255 -27 0
-61 -28 0
-62 -29 0
-63 -30 0
-199 -28 0
-200 -29 0
-201 -30 0
-409 -28 0
-410 -29 0
-411 -30 0
-34 -31 0
-35 -32 0
-36 -33 0
-142 -31 0
-143 -32 0
-144 -33 0
-262 -31 0
-263 -32 0
-264 -33 0
-370 -31 0
-371 -32 0
-372 -33 0
-376 -31 0
-377 -32 0
-378 -33 0
-403 -31 0
-404 -32 0
-405 -33 0
-466 -31 0
-467 -32 0
-468 -33 0
-70 -34 0
-71 -35 0
-72 -36 0
-142 -34 0
-143 -35 0
-144 -36 0
-367 -34 0
-368 -35 0
-369 -36 0
-376 -34 0
-377 -35 0
-378 -36 0
-463 -34 0
-464 -35 0
-465 -36 0
-127 -37 0
-128 -38 0
-129 -39 0
-178 -37 0
-179 -38 0
-180 -39 0
-253 -37 0
-254 -38 0
-255 -39 0
-277 -37 0
-278 -38 0
-279 -39 0
-463 -37 0
-464 -38 0
-465 -39 0
-262 -40 0
-263 -41 0
-264 -42 0
-334 -40 0
-335 -41 0
-336 -42 0
-436 -40 0
-437 -41 0
-438 -42 0
-127 -43 0
-128 -44 0
-129 -45 0
-193 -43 0
-194 -44 0
-195 -45 0
-196 -43 0
-197 -44 0
-198 -45 0
-208 -46 0
-209 -47 0
-210 -48 0
-295 -46 0
-296 -47 0
-297 -48 0
-388 -46 0
-389 -47 0
-390 -48 0
-427 -46 0
-428 -47 0
-429 -48 0
-451 -46 0
-452 -47 0
-453 -48 0
-475 -46 0
-476 -47 0
-477 -48 0
-61 -49 0
-62 -50 0
-63 -51 0
-133 -49 0
-134 -50 0
-135 -51 0
-178 -49 0
-179 -50 0
-180 -51 0
-106 -52 0
-107 -53 0
-108 -54 0
-262 -52 0
-263 -53 0
-264 -54 0
-286 -52 0
-287 -53 0
-288 -54 0
-439 -52 0
-440 -53 0
-441 -54 0
-454 -52 0
-455 -53 0
-456 -54 0
-82 -55 0
-83 -56 0
-84 -57 0
-187 -55 0
-188 -56 0
-189 -57 0
-352 -55 0
-353 -56 0
-354 -57 0
-370 -55 0
-371 -56 0
-372 -57 0
-115 -58 0
-116 -59 0
-117 -60 0
-349 -58 0
-350 -59 0
-351 -60 0
-427 -58 0
-428 -59 0
-429 -60 0
-88 -61 0
-89 -62 0
-90 -63 0
-292 -61 0
-293 -62 0
-294 -63 0
-346 -61 0
-347 -62 0
-348 -63 0
-394 -64 0
-395 -65 0
-396 -66 0
-460 -64 0
-461 -65 0
-462 -66 0
-475 -64 0
-476 -65 0
-477 -66 0
-484 -64 0
-485 -65 0
-486 -66 0
-187 -67 0
-188 -68 0
-189 -69 0
-205 -67 0
-206 -68 0
-207 -69 0
-247 -67 0
-248 -68 0
-249 -69 0
-367 -67 0
-368 -68 0
-369 -69 0
-415 -67 0
-416 -68 0
-417 -69 0
-472 -67 0
-473 -68 0
-474 -69 0
-496 -67 0
-497 -68 0
-498 -69 0
-172 -70 0
-173 -71 0
-174 -72 0
-406 -70 0
-407 -71 0
-408 -72 0
-412 -70 0
-413 -71 0
-414 -72 0
-106 -73 0
-107 -74 0
-108 -75 0
-145 -73 0
-146 -74 0
-147 -75 0
-259 -73 0
-260 -74 0
-261 -75 0
-334 -73 0
-335 -74 0
-336 -75 0
-409 -73 0
-410 -74 0
-411 -75 0
-424 -73 0
-425 -74 0
-426 -75 0
-109 -76 0
-110 -77 0
-111 -78 0
-163 -76 0
-164 -77 0
-165 -78 0
-235 -76 0
-236 -77 0
-237 -78 0
-424 -76 0
-425 -77 0
-426 -78 0
-457 -76 0
-458 -77 0
-459 -78 0
-484 -76 0
-485 -77 0
-486 -78 0
-121 -79 0
-122 -80 0
-123 -81 0
-271 -79 0
-272 -80 0
-273 -81 0
-298 -79 0
-299 -80 0
-300 -81 0
-322 -79 0
-323 -80 0
-324 -81 0
-409 -79 0
-410 -80 0
-411 -81 0
-472 -79 0
-473 -80 0
-474 -81 0
-127 -82 0
-128 -83 0
-129 -84 0
-181 -82 0
-182 -83 0
-183 -84 0
-259 -82 0
-260 -83 0
-261 -84 0
-391 -82 0
-392 -83 0
-393 -84 0
-247 -85 0
-248 -86 0
-249 -87 0
-409 -85 0
-410 -86 0
-411 -87 0
-484 -85 0
-485 -86 0
-486 -87 0
-94 -88 0
-95 -89 0
-96 -90 0
-211 -88 0
-212 -89 0
-213 -90 0
-301 -88 0
-302 -89 0
-303 -90 0
-499 -88 0
-500 -89 0
-501 -90 0
-106 -91 0
-107 -92 0
-108 -93 0
-139 -91 0
-140 -92 0
-141 -93 0
-175 -91 0
-176 -92 0
-177 -93 0
-205 -91 0
-206 -92 0
-207 -93 0
-307 -91 0
-308 -92 0
-309 -93 0
-322 -94 0
-323 -95 0
-324 -96 0
-394 -94 0
-395 -95 0
-396 -96 0
-478 -94 0
-479 -95 0
-480 -96 0
-112 -97 0
-113 -98 0
-114 -99 0
-256 -97 0
-257 -98 0
-258 -99 0
-487 -97 0
-488 -98 0
-489 -99 0
-163 -100 0
-164 -101 0
-165 -102 0
-487 -100 0
-488 -101 0
-489 -102 0
-106 -103 0
-107 -104 0
-108 -105 0
-382 -103 0
-383 -104 0
-384 -105 0
-463 -103 0
-464 -104 0
-465 -105 0
-367 -106 0
-368 -107 0
-369 -108 0
-394 -106 0
-395 -107 0
-396 -108 0
-427 -106 0
-428 -107 0
-429 -108 0
-433 -106 0
-434 -107 0
-435 -108 0
-154 -112 0
-155 -113 0
-156 -114 0
-241 -112 0
-242 -113 0
-243 -114 0
-280 -112 0
-281 -113 0
-282 -114 0
-379 -112 0
-380 -113 0
-381 -114 0
-262 -115 0
-263 -116 0
-264 -117 0
-283 -115 0
-284 -116 0
-285 -117 0
-298 -115 0
-299 -116 0
-300 -117 0
-151 -118 0
-152 -119 0
-153 -120 0
-337 -118 0
-338 -119 0
-339 -120 0
-394 -118 0
-395 -119 0
-396 -120 0
-166 -121 0
-167 -122 0
-168 -123 0
-340 -121 0
-341 -122 0
-342 -123 0
-400 -121 0
-401 -122 0
-402 -123 0
-508 -121 0
-509 -122 0
-510 -123 0
-199 -124 0
-200 -125 0
-201 -126 0
-217 -124 0
-218 -125 0
-219 -126 0
-343 -124 0
-344 -125 0
-345 -126 0
-424 -124 0
-425 -125 0
-426 -126 0
-472 -124 0
-473 -125 0
-474 -126 0
-316 -127 0
-317 -128 0
-318 -129 0
-400 -127 0
-401 -128 0
-402 -129 0
-469 -127 0
-470 -128 0
-471 -129 0
-496 -127 0
-497 -128 0
-498 -129 0
-211 -130 0
-212 -131 0
-213 -132 0
-370 -130 0
-371 -131 0
-372 -132 0
-148 -133 0
-149 -134 0
-150 -135 0
-244 -133 0
-245 -134 0
-246 -135 0
-304 -133 0
-305 -134 0
-306 -135 0
-361 -133 0
-362 -134 0
-363 -135 0
-403 -133 0
-404 -134 0
-405 -135 0
-496 -136 0
-497 -137 0
-498 -138 0
-184 -139 0
-185 -140 0
-186 -141 0
-208 -139 0
-209 -140 0
-210 -141 0
-298 -139 0
-299 -140 0
-300 -141 0
-325 -139 0
-326 -140 0
-327 -141 0
-442 -139 0
-443 -140 0
-444 -141 0
-523 -139 0
-524 -140 0
-525 -141 0
-193 -142 0
-194 -143 0
-195 -144 0
-469 -142 0
-470 -143 0
-471 -144 0
-505 -142 0
-506 -143 0
-507 -144 0
-286 -145 0
-287 -146 0
-288 -147 0
-331 -145 0
-332 -146 0
-333 -147 0
-343 -145 0
-344 -146 0
-345 -147 0
-412 -145 0
-413 -146 0
-414 -147 0
-241 -148 0
-242 -149 0
-243 -150 0
-286 -148 0
-287 -149 0
-288 -150 0
-298 -148 0
-299 -149 0
-300 -150 0
-367 -148 0
-368 -149 0
-369 -150 0
-436 -148 0
-437 -149 0
-438 -150 0
-442 -148 0
-443 -149 0
-444 -150 0
-448 -148 0
-449 -149 0
-450 -150 0
-487 -151 0
-488 -152 0
-489 -153 0
-184 -154 0
-185 -155 0
-186 -156 0
-229 -154 0
-230 -155 0
-231 -156 0
-361 -154 0
-362 -155 0
-363 -156 0
-460 -154 0
-461 -155 0
-462 -156 0
-502 -154 0
-503 -155 0
-504 -156 0
-166 -157 0
-167 -158 0
-168 -159 0
-226 -157 0
-227 -158 0
-228 -159 0
-286 -157 0
-287 -158 0
-288 -159 0
-334 -157 0
-335 -158 0
-336 -159 0
-166 -160 0
-167 -161 0
-168 -162 0
-196 -160 0
-197 -161 0
-198 -162 0
-283 -160 0
-284 -161 0
-285 -162 0
-307 -163 0
-308 -164 0
-309 -165 0
-316 -163 0
-317 -164 0
-318 -165 0
-361 -163 0
-362 -164 0
-363 -165 0
-478 -163 0
-479 -164 0
-480 -165 0
-415 -166 0
-416 -167 0
-417 -168 0
-430 -166 0
-431 -167 0
-432 -168 0
-457 -166 0
-458 -167 0
-459 -168 0
-214 -172 0
-215 -173 0
-216 -174 0
-265 -172 0
-266 -173 0
-267 -174 0
-310 -172 0
-311 -173 0
-312 -174 0
-421 -172 0
-422 -173 0
-423 -174 0
-493 -172 0
-494 -173 0
-495 -174 0
-517 -172 0
-518 -173 0
-519 -174 0
-304 -175 0
-305 -176 0
-306 -177 0
-322 -175 0
-323 -176 0
-324 -177 0
-364 -175 0
-365 -176 0
-366 -177 0
-406 -175 0
-407 -176 0
-408 -177 0
-451 -175 0
-452 -176 0
-453 -177 0
-475 -175 0
-476 -176 0
-477 -177 0
-514 -175 0
-515 -176 0
-516 -177 0
-226 -178 0
-227 -179 0
-228 -180 0
-268 -178 0
-269 -179 0
-270 -180 0
-322 -178 0
-323 -179 0
-324 -180 0
-325 -178 0
-326 -179 0
-327 -180 0
-475 -178 0
-476 -179 0
-477 -180 0
-235 -181 0
-236 -182 0
-237 -183 0
-328 -181 0
-329 -182 0
-330 -183 0
-313 -184 0
-314 -185 0
-315 -186 0
-346 -184 0
-347 -185 0
-348 -186 0
-361 -184 0
-362 -185 0
-363 -186 0
-379 -184 0
-380 -185 0
-381 -186 0
-415 -184 0
-416 -185 0
-417 -186 0
-325 -187 0
-326 -188 0
-327 -189 0
-421 -187 0
-422 -188 0
-423 -189 0
-451 -187 0
-452 -188 0
-453 -189 0
-304 -190 0
-305 -191 0
-306 -192 0
-412 -193 0
-413 -194 0
-414 -195 0
-229 -196 0
-230 -197 0
-231 -198 0
-298 -196 0
-299 -197 0
-300 -198 0
-373 -196 0
-374 -197 0
-375 -198 0
-310 -199 0
-311 -200 0
-312 -201 0
-376 -199 0
-377 -200 0
-378 -201 0
-247 -202 0
-248 -203 0
-249 -204 0
-313 -202 0
-314 -203 0
-315 -204 0
-328 -202 0
-329 -203 0
-330 -204 0
-352 -202 0
-353 -203 0
-354 -204 0
-208 -205 0
-209 -206 0
-210 -207 0
-406 -205 0
-407 -206 0
-408 -207 0
-424 -208 0
-425 -209 0
-426 -210 0
-343 -211 0
-344 -212 0
-345 -213 0
-406 -211 0
-407 -212 0
-408 -213 0
-505 -211 0
-506 -212 0
-507 -213 0
-217 -214 0
-218 -215 0
-219 -216 0
-391 -214 0
-392 -215 0
-393 -216 0
-421 -217 0
-422 -218 0
-423 -219 0
-499 -217 0
-500 -218 0
-501 -219 0
-292 -220 0
-293 -221 0
-294 -222 0
-307 -220 0
-308 -221 0
-309 -222 0
-331 -220 0
-332 -221 0
-333 -222 0
-508 -220 0
-509 -221 0
-510 -222 0
-379 -223 0
-380 -224 0
-381 -225 0
-424 -223 0
-425 -224 0
-426 -225 0
-454 -223 0
-455 -224 0
-456 -225 0
-457 -223 0
-458 -224 0
-459 -225 0
-325 -226 0
-326 -227 0
-327 -228 0
-454 -226 0
-455 -227 0
-456 -228 0
-232 -229 0
-233 -230 0
-234 -231 0
-241 -229 0
-242 -230 0
-243 -231 0
-307 -229 0
-308 -230 0
-309 -231 0
-271 -232 0
-272 -233 0
-273 -234 0
-283 -232 0
-284 -233 0
-285 -234 0
-322 -232 0
-323 -233 0
-324 -234 0
-367 -232 0
-368 -233 0
-369 -234 0
-382 -232 0
-383 -233 0
-384 -234 0
-250 -235 0
-251 -236 0
-252 -237 0
-430 -235 0
-431 -236 0
-432 -237 0
-505 -235 0
-506 -236 0
-507 -237 0
-301 -238 0
-302 -239 0
-303 -240 0
-334 -241 0
-335 -242 0
-336 -243 0
-358 -241 0
-359 -242 0
-360 -243 0
-391 -241 0
-392 -242 0
-393 -243 0
-418 -241 0
-419 -242 0
-420 -243 0
-271 -244 0
-272 -245 0
-273 -246 0
-403 -244 0
-404 -245 0
-405 -246 0
-265 -247 0
-266 -248 0
-267 -249 0
-301 -247 0
-302 -248 0
-303 -249 0
-349 -247 0
-350 -248 0
-351 -249 0
-376 -247 0
-377 -248 0
-378 -249 0
-511 -247 0
-512 -248 0
-513 -249 0
-262 -250 0
-263 -251 0
-264 -252 0
-466 -250 0
-467 -251 0
-468 -252 0
-385 -253 0
-386 -254 0
-387 -255 0
-403 -256 0
-404 -257 0
-405 -258 0
-430 -256 0
-431 -257 0
-432 -258 0
-433 -256 0
-434 -257 0
-435 -258 0
-442 -256 0
-443 -257 0
-444 -258 0
-310 -259 0
-311 -260 0
-312 -261 0
-322 -259 0
-323 -260 0
-324 -261 0
-451 -259 0
-452 -260 0
-453 -261 0
-454 -259 0
-455 -260 0
-456 -261 0
-388 -262 0
-389 -263 0
-390 -264 0
-499 -262 0
-500 -263 0
-501 -264 0
-301 -265 0
-302 -266 0
-303 -267 0
-319 -265 0
-320 -266 0
-321 -267 0
-397 -265 0
-398 -266 0
-399 -267 0
-439 -268 0
-440 -269 0
-441 -270 0
-442 -268 0
-443 -269 0
-444 -270 0
-280 -271 0
-281 -272 0
-282 -273 0
-382 -271 0
-383 -272 0
-384 -273 0
-460 -271 0
-461 -272 0
-462 -273 0
-517 -271 0
-518 -272 0
-519 -273 0
-301 -274 0
-302 -275 0
-303 -276 0
-445 -274 0
-446 -275 0
-447 -276 0
-466 -274 0
-467 -275 0
-468 -276 0
-418 -277 0
-419 -278 0
-420 -279 0
-523 -280 0
-524 -281 0
-525 -282 0
-382 -283 0
-383 -284 0
-384 -285 0
-448 -283 0
-449 -284 0
-450 -285 0
-316 -286 0
-317 -287 0
-318 -288 0
-328 -286 0
-329 -287 0
-330 -288 0
-367 -286 0
-368 -287 0
-369 -288 0
-430 -286 0
-431 -287 0
-432 -288 0
-331 -289 0
-332 -290 0
-333 -291 0
-340 -289 0
-341 -290 0
-342 -291 0
-511 -289 0
-512 -290 0
-513 -291 0
-520 -289 0
-521 -290 0
-522 -291 0
-514 -292 0
-515 -293 0
-516 -294 0
-409 -301 0
-410 -302 0
-411 -303 0
-439 -301 0
-440 -302 0
-441 -303 0
-493 -301 0
-494 -302 0
-495 -303 0
-334 -304 0
-335 -305 0
-336 -306 0
-349 -307 0
-350 -308 0
-351 -309 0
-319 -310 0
-320 -311 0
-321 -312 0
-334 -316 0
-335 -317 0
-336 -318 0
-322 -319 0
-323 -320 0
-324 -321 0
-442 -319 0
-443 -320 0
-444 -321 0
-436 -325 0
-437 -326 0
-438 -327 0
-457 -325 0
-458 -326 0
-459 -327 0
-337 -328 0
-338 -329 0
-339 -330 0
-364 -328 0
-365 -329 0
-366 -330 0
-463 -328 0
-464 -329 0
-465 -330 0
-340 -331 0
-341 -332 0
-342 -333 0
-502 -331 0
-503 -332 0
-504 -333 0
-514 -334 0
-515 -335 0
-516 -336 0
-385 -343 0
-386 -344 0
-387 -345 0
-409 -346 0
-410 -347 0
-411 -348 0
-454 -346 0
-455 -347 0
-456 -348 0
-463 -346 0
-464 -347 0
-465 -348 0
-499 -346 0
-500 -347 0
-501 -348 0
-385 -349 0
-386 -350 0
-387 -351 0
-388 -352 0
-389 -353 0
-390 -354 0
-514 -361 0
-515 -362 0
-516 -363 0
-400 -367 0
-401 -368 0
-402 -369 0
-499 -367 0
-500 -368 0
-501 -369 0
-442 -370 0
-443 -371 0
-444 -372 0
-493 -370 0
-494 -371 0
-495 -372 0
-502 -370 0
-503 -371 0
-504 -372 0
-457 -376 0
-458 -377 0
-459 -378 0
-475 -379 0
-476 -380 0
-477 -381 0
-388 -382 0
-389 -383 0
-390 -384 0
-487 -382 0
-488 -383 0
-489 -384 0
-493 -382 0
-494 -383 0
-495 -384 0
-523 -382 0
-524 -383 0
-525 -384 0
-475 -385 0
-476 -386 0
-477 -387 0
-520 -385 0
-521 -386 0
-522 -387 0
-502 -388 0
-503 -389 0
-504 -390 0
-448 -394 0
-449 -395 0
-450 -396 0
-412 -400 0
-413 -401 0
-414 -402 0
-436 -400 0
-437 -401 0
-438 -402 0
-514 -400 0
-515 -401 0
-516 -402 0
-448 -403 0
-449 -404 0
-450 -405 0
-520 -406 0
-521 -407 0
-522 -408 0
-427 -409 0
-428 -410 0
-429 -411 0
-523 -409 0
-524 -410 0
-525 -411 0
-490 -412 0
-491 -413 0
-492 -414 0
-430 -415 0
-431 -416 0
-432 -417 0
-502 -418 0
-503 -419 0
-504 -420 0
-490 -421 0
-491 -422 0
-492 -423 0
-484 -430 0
-485 -431 0
-486 -432 0
-487 -430 0
-488 -431 0
-489 -432 0
-439 -433 0
-440 -434 0
-441 -435 0
-496 -439 0
-497 -440 0
-498 -441 0
-472 -442 0
-473 -443 0
-474 -444 0
-502 -451 0
-503 -452 0
-504 -453 0
-499 -460 0
-500 -461 0
-501 -462 0
-502 -460 0
-503 -461 0
-504 -462 0
-490 -463 0
-491 -464 0
-492 -465 0
-505 -463 0
-506 -464 0
-507 -465 0
-478 -472 0
-479 -473 0
-480 -474 0
-487 -478 0
-488 -479 0
-489 -480 0
-484 -481 0
-485 -482 0
-486 -483 0
-520 -481 0
-521 -482 0
-522 -483 0
-502 -487 0
-503 -488 0
-504 -489 0
-520 -487 0
-521 -488 0
-522 -489 0
-511 -490 0
-512 -491 0
-513 -492 0
